0
1
2
3
4
4,50
7,125
6,15,38
3,8
9,101
10
10,28
10,40
13
5,14
72,73,74,75
70,71,80
17,19
76,77,78,79
18,131
21
24,25,26,27
24
25
26
27
28
29
31,32,33,51
34,36
37
37,124
37,135
39
42,44
39,46
43
43,47
45
45,48,49
47
48
49
50
52
53,131
4,56
12,55
40,55
41,55
54,134
60,62
57
30,57
57,131
58
58,61
59,63
61
62
63
64
35,64
65
68
82
83
16,97
65,84
22,85
86,99
21,87
65,84,106
66,84
90,91,92,93,94
88,96
69,89
20,98
69,96
17,95,131
100,102,103
100,102,103,104
107
121
105,108,109,110,111,112,113,114,115,116,117,118,119,120
3,23,40,107
123
126
127
128
129
130
131
132
40,81
133
134
35,134
11,40
4,10,40,61,62,63,64,67,131
4,122
